
******************************************************************************
This program contains Ipopt, a library for large-scale nonlinear optimization.
 Ipopt is released as open source code under the Eclipse Public License (EPL).
         For more information visit http://projects.coin-or.org/Ipopt
******************************************************************************

This is Ipopt version 3.12.6, running with linear solver ma57.

Number of nonzeros in equality constraint Jacobian...:   208335
Number of nonzeros in inequality constraint Jacobian.:        0
Number of nonzeros in Lagrangian Hessian.............:    34552

Exception of type: TOO_FEW_DOF in file "../../../../Ipopt/src/Interfaces/IpIpoptApplication.cpp" at line 890:
 Exception message: status != TOO_FEW_DEGREES_OF_FREEDOM evaluated false: Too few degrees of freedom (rethrown)!

EXIT: Problem has too few degrees of freedom.

************************ CUTEst statistics ************************


 Package used            :  IPOPT
 Problem                 :  FIVE20B   
 # variables             =           34552
 # constraints           =           52983
 # objective functions   =        0.1000000E+01
 # objective gradients   =        0.1000000E+01
 # objective Hessians    =        0.1000000E+01
 # Hessian-vector prdct  =        0.0000000E+00
 # constraints functions =        0.2000000E+01
 # constraints gradients =        0.2000000E+01
 # constraints Hessians  =        0.1000000E+01
 Exit code               =             -10
 Final f                 =   0.0000000E+00
 Set up time             =            0.39 seconds
 Solve time              =            0.03 seconds


******************************************************************

System Time =       0.0260000005 s.
